set VV := 0 1 2 3 4 5 6 7 8 9 10 11 12 13 14 15 16 17 18 19 20 21 22 23 24 25 26 ;
set VS := 0 1 2 3 4 5 6 7 8 9 10 11 12 13 14 15 16 17 18 19 20 21 22 23 24 25 26 27 28 29 30 31 32 33 34 35 36 37 38 39 40 41 42 43 44 45 46 47 48 49 50 51 52 53 54 55 56 57 ;
param cv := 
0 15
1 19
2 23
3 19
4 19
5 14
6 23
7 21
8 16
9 20
10 17
11 21
12 16
13 23
14 15
15 12
16 14
17 24
18 24
19 17
20 15
21 10
22 10
23 14
24 10
25 23
26 13
;
param cs := 
0 22
1 30
2 24
3 26
4 26
5 40
6 31
7 23
8 40
9 21
10 23
11 20
12 23
13 20
14 30
15 39
16 30
17 35
18 31
19 29
20 23
21 40
22 34
23 37
24 25
25 39
26 30
27 25
28 35
29 28
30 23
31 26
32 40
33 21
34 30
35 37
36 22
37 38
38 27
39 35
40 28
41 38
42 25
43 26
44 25
45 39
46 34
47 36
48 24
49 22
50 29
51 40
52 38
53 20
54 23
55 38
56 38
57 34
;
param bv:	 0 1 2 3 4 5 6 7 8 9 10 11 12 13 14 15 16 17 18 19 20 21 22 23 24 25 26 := 
		0 0 0 0 0 0 10 0 0 11 20 0 12 0 24 0 0 0 0 0 21 0 0 0 0 0 17 0 
		1 0 0 15 0 0 0 14 0 0 0 0 19 0 0 0 0 0 0 0 0 0 0 0 0 0 0 0 
		2 0 0 0 0 0 0 0 0 0 0 0 0 0 0 0 0 0 0 0 0 0 0 0 0 0 0 10 
		3 0 0 0 0 0 0 0 16 0 20 0 0 0 25 0 0 0 10 13 16 23 0 0 21 0 0 0 
		4 0 0 0 0 0 0 0 0 0 0 0 0 10 0 0 15 12 0 0 0 14 0 0 0 18 0 0 
		5 0 0 0 0 0 0 0 0 0 11 0 0 0 0 0 0 0 0 0 0 0 0 0 0 0 10 0 
		6 0 0 0 0 0 0 0 0 19 21 20 0 0 0 0 0 0 0 0 0 0 0 0 0 0 0 12 
		7 0 0 0 0 0 0 0 0 0 0 0 0 0 0 0 0 0 0 21 0 0 0 0 0 0 0 0 
		8 0 0 0 0 0 0 0 0 0 0 0 0 0 12 0 0 0 10 0 0 0 0 0 0 0 0 0 
		9 0 0 0 0 0 0 0 0 0 0 0 0 0 0 0 0 0 0 0 0 0 0 0 0 0 21 0 
		10 0 0 0 0 0 0 0 0 0 0 0 0 0 0 0 0 19 0 0 0 0 0 0 0 0 0 0 
		11 0 0 0 0 0 0 0 0 0 0 0 0 0 0 0 0 0 0 0 0 0 0 0 0 0 19 0 
		12 0 0 0 0 0 0 0 0 0 0 0 0 0 0 0 25 0 0 0 0 0 0 0 0 0 0 0 
		13 0 0 0 0 0 0 0 0 0 0 0 0 0 0 0 10 0 0 16 0 0 0 0 0 19 0 0 
		14 0 0 0 0 0 0 0 0 0 0 0 0 0 0 0 0 17 0 22 0 0 0 0 24 0 0 20 
		15 0 0 0 0 0 0 0 0 0 0 0 0 0 0 0 0 0 0 0 0 0 19 0 0 0 0 24 
		16 0 0 0 0 0 0 0 0 0 0 0 0 0 0 0 0 0 0 0 0 0 0 0 0 0 10 0 
		17 0 0 0 0 0 0 0 0 0 0 0 0 0 0 0 0 0 0 0 0 0 0 12 0 0 21 0 
		18 0 0 0 0 0 0 0 0 0 0 0 0 0 0 0 0 0 0 0 0 0 0 0 0 0 10 0 
		19 0 0 0 0 0 0 0 0 0 0 0 0 0 0 0 0 0 0 0 0 0 0 0 0 0 0 0 
		20 0 0 0 0 0 0 0 0 0 0 0 0 0 0 0 0 0 0 0 0 0 0 0 0 0 18 15 
		21 0 0 0 0 0 0 0 0 0 0 0 0 0 0 0 0 0 0 0 0 0 0 0 0 0 0 0 
		22 0 0 0 0 0 0 0 0 0 0 0 0 0 0 0 0 0 0 0 0 0 0 0 0 0 0 22 
		23 0 0 0 0 0 0 0 0 0 0 0 0 0 0 0 0 0 0 0 0 0 0 0 0 0 0 0 
		24 0 0 0 0 0 0 0 0 0 0 0 0 0 0 0 0 0 0 0 0 0 0 0 0 0 0 0 
		25 0 0 0 0 0 0 0 0 0 0 0 0 0 0 0 0 0 0 0 0 0 0 0 0 0 0 21 
		26 0 0 0 0 0 0 0 0 0 0 0 0 0 0 0 0 0 0 0 0 0 0 0 0 0 0 0 
;
param bs:	 0 1 2 3 4 5 6 7 8 9 10 11 12 13 14 15 16 17 18 19 20 21 22 23 24 25 26 27 28 29 30 31 32 33 34 35 36 37 38 39 40 41 42 43 44 45 46 47 48 49 50 51 52 53 54 55 56 57 := 
		0 0 0 0 0 0 0 0 0 0 0 0 0 0 0 0 0 0 0 0 0 0 0 0 0 0 0 0 0 0 38 0 0 0 0 0 0 0 0 0 0 0 0 0 0 0 0 0 0 0 0 0 0 0 0 0 0 0 40 
		1 0 0 0 0 0 0 0 0 0 0 0 0 0 0 0 0 0 0 0 0 0 31 0 0 0 0 20 0 0 0 0 0 0 0 39 0 0 0 0 0 0 0 0 20 0 0 28 0 0 0 0 0 0 0 0 0 0 0 
		2 0 0 0 0 0 0 0 0 0 0 0 0 0 0 0 0 0 0 0 0 0 0 0 0 0 0 0 0 0 20 0 40 20 0 0 0 0 0 0 37 0 26 0 0 0 0 27 0 0 0 0 0 0 0 0 21 36 0 
		3 0 0 0 0 0 0 0 0 0 0 0 0 0 0 21 0 0 0 0 0 0 0 0 0 0 0 0 0 0 32 0 21 27 38 0 0 39 0 0 0 0 0 0 0 0 0 0 0 0 0 28 28 0 0 25 0 24 0 
		4 0 0 0 0 0 0 0 0 0 0 0 40 36 0 0 0 0 0 27 33 0 0 0 0 0 0 0 28 0 0 0 0 0 0 39 40 34 0 0 38 0 0 0 0 0 0 0 23 0 0 0 0 0 24 0 0 0 0 
		5 0 0 0 0 0 0 0 26 0 0 25 0 0 0 0 0 0 0 0 0 0 0 0 0 0 0 0 0 0 0 25 0 0 0 0 0 0 0 0 0 0 0 0 0 0 0 0 0 0 0 0 0 0 0 0 0 0 0 
		6 0 0 0 0 0 0 0 33 0 0 0 0 0 0 0 0 0 0 36 0 0 0 33 0 0 37 0 0 0 0 0 0 0 0 0 0 0 0 0 0 0 0 0 0 0 0 0 0 0 0 0 0 0 0 0 0 0 0 
		7 0 0 0 0 0 26 33 0 0 0 0 0 0 0 0 0 0 0 0 0 0 0 0 0 0 0 0 0 0 0 0 0 0 0 0 0 0 0 0 0 26 0 20 0 0 0 0 0 0 23 0 0 0 35 0 0 0 20 
		8 0 0 0 0 0 0 0 0 0 0 0 0 0 0 0 0 0 0 0 0 37 0 0 0 0 0 0 0 0 0 0 0 0 0 0 0 0 0 39 0 0 0 0 0 0 0 0 0 0 0 0 0 0 0 0 0 0 33 
		9 0 0 0 0 0 0 0 0 0 0 0 0 0 0 0 0 0 0 0 31 0 0 0 0 0 0 0 0 0 0 0 0 0 0 0 0 0 0 0 0 0 0 26 0 31 0 0 0 0 0 0 0 0 0 0 0 0 0 
		10 0 0 0 0 0 25 0 0 0 0 0 20 0 0 0 0 23 0 0 0 0 20 0 0 0 0 0 0 0 40 0 0 0 0 0 0 22 0 0 0 0 0 0 0 0 0 22 0 0 0 0 0 0 34 0 0 0 0 
		11 0 0 0 0 40 0 0 0 0 0 20 0 0 0 0 0 0 37 0 0 0 0 0 0 0 0 39 0 0 0 0 0 0 38 30 0 32 0 33 39 0 0 0 0 0 0 0 0 0 0 0 0 0 0 0 0 0 0 
		12 0 0 0 0 36 0 0 0 0 0 0 0 0 0 36 0 0 0 35 0 0 36 0 0 0 0 0 0 0 0 0 0 36 0 0 0 0 0 0 39 0 0 32 0 0 0 0 25 23 0 28 0 38 0 0 0 0 0 
		13 0 0 0 0 0 0 0 0 0 0 0 0 0 0 0 0 0 0 0 0 0 0 0 0 0 0 0 0 24 0 0 0 0 0 0 0 0 0 0 40 0 0 0 0 0 0 0 0 0 0 0 0 0 0 0 0 0 0 
		14 0 0 0 21 0 0 0 0 0 0 0 0 36 0 0 0 0 0 0 0 0 0 0 0 0 0 0 36 0 0 0 39 0 0 20 0 0 0 0 0 0 0 0 0 0 0 0 0 0 0 0 0 0 0 0 0 32 0 
		15 0 0 0 0 0 0 0 0 0 0 0 0 0 0 0 0 0 0 0 0 21 0 38 0 0 0 0 0 36 24 0 0 0 0 0 0 22 0 0 0 0 0 0 0 0 0 0 0 0 0 0 0 0 0 0 0 0 0 
		16 0 0 0 0 0 0 0 0 0 0 23 0 0 0 0 0 0 0 0 22 34 0 0 0 0 0 0 0 0 0 36 0 0 0 37 0 0 0 0 0 0 0 0 0 0 22 0 0 0 0 0 0 0 25 0 0 0 0 
		17 0 0 0 0 0 0 0 0 0 0 0 37 0 0 0 0 0 0 28 0 0 0 0 0 0 23 0 0 0 38 0 0 0 0 39 0 0 0 0 0 0 0 0 23 0 0 0 36 0 0 0 0 0 0 0 0 0 0 
		18 0 0 0 0 27 0 36 0 0 0 0 0 35 0 0 0 0 28 0 0 0 0 0 0 0 0 0 0 0 0 0 0 0 0 0 0 40 24 0 31 0 0 0 0 0 0 0 0 0 0 0 0 35 0 0 0 0 0 
		19 0 0 0 0 33 0 0 0 0 31 0 0 0 0 0 0 22 0 0 0 0 0 0 0 0 0 0 0 0 0 0 0 0 0 0 32 0 0 0 0 0 28 0 0 0 0 0 0 0 0 0 33 0 33 0 0 0 0 
		20 0 0 0 0 0 0 0 0 37 0 0 0 0 0 0 21 34 0 0 0 0 0 0 27 0 30 0 0 0 0 0 0 0 0 0 0 0 0 0 32 0 0 0 0 0 0 0 0 0 0 0 0 39 0 0 33 0 0 
		21 0 31 0 0 0 0 0 0 0 0 20 0 36 0 0 0 0 0 0 0 0 0 0 0 0 0 0 0 36 0 0 0 0 0 0 0 0 0 0 0 0 0 0 0 0 0 0 0 0 0 0 0 0 0 0 0 24 38 
		22 0 0 0 0 0 0 33 0 0 0 0 0 0 0 0 38 0 0 0 0 0 0 0 28 0 36 0 0 0 0 38 0 0 0 0 0 0 0 0 0 0 0 0 0 0 38 0 0 0 34 34 34 0 0 0 32 0 29 
		23 0 0 0 0 0 0 0 0 0 0 0 0 0 0 0 0 0 0 0 0 27 0 28 0 0 26 0 0 0 0 0 0 0 0 0 28 0 0 0 30 0 0 0 0 0 20 0 0 0 0 0 0 0 0 0 0 0 0 
		24 0 0 0 0 0 0 0 0 0 0 0 0 0 0 0 0 0 0 0 0 0 0 0 0 0 0 0 0 0 0 0 0 0 0 0 0 0 0 0 0 0 0 0 40 0 0 0 0 0 0 0 0 0 0 0 0 0 22 
		25 0 0 0 0 0 0 37 0 0 0 0 0 0 0 0 0 0 23 0 0 30 0 36 26 0 0 0 0 0 0 0 0 0 0 0 0 0 0 0 0 0 29 0 0 0 0 0 0 0 0 37 32 0 28 0 0 0 0 
		26 0 20 0 0 0 0 0 0 0 0 0 39 0 0 0 0 0 0 0 0 0 0 0 0 0 0 0 0 0 0 0 0 0 0 0 0 0 0 0 0 0 39 0 0 0 0 0 0 0 23 0 27 0 0 0 0 0 0 
		27 0 0 0 0 28 0 0 0 0 0 0 0 0 0 36 0 0 0 0 0 0 0 0 0 0 0 0 0 0 0 0 0 0 0 0 0 0 0 0 0 0 0 0 34 0 0 0 0 0 0 0 0 0 0 0 0 0 0 
		28 0 0 0 0 0 0 0 0 0 0 0 0 0 24 0 36 0 0 0 0 0 36 0 0 0 0 0 0 0 0 34 0 0 0 0 0 0 0 0 29 0 0 0 0 0 0 0 30 0 0 0 0 0 0 0 0 0 0 
		29 38 0 20 32 0 0 0 0 0 0 40 0 0 0 0 24 0 38 0 0 0 0 0 0 0 0 0 0 0 0 0 0 0 0 0 0 0 0 0 0 0 0 0 0 0 0 0 27 0 0 0 0 0 0 0 0 0 26 
		30 0 0 0 0 0 25 0 0 0 0 0 0 0 0 0 0 36 0 0 0 0 0 38 0 0 0 0 0 34 0 0 21 0 0 0 0 0 24 0 0 0 0 28 0 0 0 0 0 23 0 21 0 25 0 0 0 0 0 
		31 0 0 40 21 0 0 0 0 0 0 0 0 0 0 39 0 0 0 0 0 0 0 0 0 0 0 0 0 0 0 21 0 0 31 0 0 28 0 0 0 0 23 0 0 0 0 0 0 0 0 0 0 0 0 0 0 0 0 
		32 0 0 20 27 0 0 0 0 0 0 0 0 36 0 0 0 0 0 0 0 0 0 0 0 0 0 0 0 0 0 0 0 0 0 0 0 0 0 0 0 28 0 0 0 0 0 0 0 0 0 0 0 0 0 0 0 0 0 
		33 0 0 0 38 0 0 0 0 0 0 0 38 0 0 0 0 0 0 0 0 0 0 0 0 0 0 0 0 0 0 0 31 0 0 0 0 0 0 0 0 0 0 0 0 0 0 0 0 0 0 0 0 0 0 0 0 38 23 
		34 0 39 0 0 39 0 0 0 0 0 0 30 0 0 20 0 37 39 0 0 0 0 0 0 0 0 0 0 0 0 0 0 0 0 0 0 0 0 0 0 0 0 0 0 0 0 0 0 0 0 0 0 0 0 0 0 0 0 
		35 0 0 0 0 40 0 0 0 0 0 0 0 0 0 0 0 0 0 0 32 0 0 0 28 0 0 0 0 0 0 0 0 0 0 0 0 0 0 0 0 0 39 0 0 0 36 0 0 0 0 0 0 20 0 0 0 0 0 
		36 0 0 0 39 34 0 0 0 0 0 22 32 0 0 0 22 0 0 40 0 0 0 0 0 0 0 0 0 0 0 0 28 0 0 0 0 0 22 0 0 0 0 0 0 27 0 0 0 0 0 0 39 35 0 0 0 37 0 
		37 0 0 0 0 0 0 0 0 0 0 0 0 0 0 0 0 0 0 24 0 0 0 0 0 0 0 0 0 0 0 24 0 0 0 0 0 22 0 0 0 0 0 0 0 0 0 0 0 0 0 0 0 0 0 0 0 0 0 
		38 0 0 0 0 0 0 0 0 39 0 0 33 0 0 0 0 0 0 0 0 0 0 0 0 0 0 0 0 0 0 0 0 0 0 0 0 0 0 0 0 0 0 0 0 0 0 0 0 0 0 0 0 34 0 0 0 0 0 
		39 0 0 37 0 38 0 0 0 0 0 0 39 39 40 0 0 0 0 31 0 32 0 0 30 0 0 0 0 29 0 0 0 0 0 0 0 0 0 0 0 0 0 0 0 0 0 0 0 0 0 0 0 0 0 0 0 0 0 
		40 0 0 0 0 0 0 0 26 0 0 0 0 0 0 0 0 0 0 0 0 0 0 0 0 0 0 0 0 0 0 0 0 28 0 0 0 0 0 0 0 0 38 0 0 0 0 0 0 0 0 0 0 0 0 0 38 0 0 
		41 0 0 26 0 0 0 0 0 0 0 0 0 0 0 0 0 0 0 0 28 0 0 0 0 0 29 39 0 0 0 0 23 0 0 0 39 0 0 0 0 38 0 0 0 0 36 0 0 37 23 0 32 0 0 0 23 31 0 
		42 0 0 0 0 0 0 0 20 0 26 0 0 32 0 0 0 0 0 0 0 0 0 0 0 0 0 0 0 0 0 28 0 0 0 0 0 0 0 0 0 0 0 0 0 24 0 0 0 0 0 37 0 0 0 0 27 0 0 
		43 0 20 0 0 0 0 0 0 0 0 0 0 0 0 0 0 0 23 0 0 0 0 0 0 40 0 0 34 0 0 0 0 0 0 0 0 0 0 0 0 0 0 0 0 0 0 0 0 0 0 0 0 0 0 0 0 0 0 
		44 0 0 0 0 0 0 0 0 0 31 0 0 0 0 0 0 0 0 0 0 0 0 0 0 0 0 0 0 0 0 0 0 0 0 0 0 27 0 0 0 0 0 24 0 0 0 0 0 0 22 0 0 0 0 0 0 0 0 
		45 0 0 0 0 0 0 0 0 0 0 0 0 0 0 0 0 22 0 0 0 0 0 38 20 0 0 0 0 0 0 0 0 0 0 0 36 0 0 0 0 0 36 0 0 0 0 0 0 0 0 0 0 0 0 22 0 0 27 
		46 0 28 27 0 0 0 0 0 0 0 22 0 0 0 0 0 0 0 0 0 0 0 0 0 0 0 0 0 0 0 0 0 0 0 0 0 0 0 0 0 0 0 0 0 0 0 0 0 0 0 0 0 0 0 0 0 0 32 
		47 0 0 0 0 23 0 0 0 0 0 0 0 25 0 0 0 0 36 0 0 0 0 0 0 0 0 0 0 30 27 0 0 0 0 0 0 0 0 0 0 0 0 0 0 0 0 0 0 0 0 0 0 0 0 23 0 0 0 
		48 0 0 0 0 0 0 0 0 0 0 0 0 23 0 0 0 0 0 0 0 0 0 0 0 0 0 0 0 0 0 23 0 0 0 0 0 0 0 0 0 0 37 0 0 0 0 0 0 0 0 0 0 0 0 0 0 0 0 
		49 0 0 0 0 0 0 0 23 0 0 0 0 0 0 0 0 0 0 0 0 0 0 34 0 0 0 23 0 0 0 0 0 0 0 0 0 0 0 0 0 0 23 0 0 22 0 0 0 0 0 0 0 0 0 0 0 0 0 
		50 0 0 0 28 0 0 0 0 0 0 0 0 28 0 0 0 0 0 0 0 0 0 34 0 0 37 0 0 0 0 21 0 0 0 0 0 0 0 0 0 0 0 37 0 0 0 0 0 0 0 0 0 0 0 0 0 0 0 
		51 0 0 0 28 0 0 0 0 0 0 0 0 0 0 0 0 0 0 0 33 0 0 34 0 0 32 27 0 0 0 0 0 0 0 0 0 39 0 0 0 0 32 0 0 0 0 0 0 0 0 0 0 0 31 38 0 0 0 
		52 0 0 0 0 0 0 0 0 0 0 0 0 38 0 0 0 0 0 35 0 39 0 0 0 0 0 0 0 0 0 25 0 0 0 0 20 35 0 34 0 0 0 0 0 0 0 0 0 0 0 0 0 0 0 0 0 0 0 
		53 0 0 0 0 24 0 0 35 0 0 34 0 0 0 0 0 25 0 0 33 0 0 0 0 0 28 0 0 0 0 0 0 0 0 0 0 0 0 0 0 0 0 0 0 0 0 0 0 0 0 0 31 0 0 22 25 0 0 
		54 0 0 0 25 0 0 0 0 0 0 0 0 0 0 0 0 0 0 0 0 0 0 0 0 0 0 0 0 0 0 0 0 0 0 0 0 0 0 0 0 0 0 0 0 0 22 0 23 0 0 0 38 0 22 0 0 0 0 
		55 0 0 21 0 0 0 0 0 0 0 0 0 0 0 0 0 0 0 0 0 33 0 32 0 0 0 0 0 0 0 0 0 0 0 0 0 0 0 0 0 38 23 27 0 0 0 0 0 0 0 0 0 0 25 0 0 0 20 
		56 0 0 36 24 0 0 0 0 0 0 0 0 0 0 32 0 0 0 0 0 0 24 0 0 0 0 0 0 0 0 0 0 0 38 0 0 37 0 0 0 0 31 0 0 0 0 0 0 0 0 0 0 0 0 0 0 0 0 
		57 40 0 0 0 0 0 0 20 33 0 0 0 0 0 0 0 0 0 0 0 0 38 29 0 22 0 0 0 0 26 0 0 0 23 0 0 0 0 0 0 0 0 0 0 0 27 32 0 0 0 0 0 0 0 0 20 0 0 
;
